3
20
3886
[[910, 57,367,867,622,135,661,393,847,125,677,582,952,857,865, 43,321,573,585,300],
 [ 90,943,633,133,378,865,339,607,153,875,323,418, 48,143,135,957,679,427,415,700],
 [ 72, 38, 13, 96, 34, 70, 70,  7, 22, 17, 64,  8, 14, 27, 49, 91, 59, 75, 19, 39]]
[294,343, 20,951,522, 77,254,120,233,335,979,474, 15,941,599,322,102, 70,648,473]